(set-option :print-success false)
(set-logic QF_UF)
(declare-sort x48 0)
(declare-sort x13 0)
(declare-fun x73 () x13)
(declare-fun x143 (x13 x13) x13)
(declare-fun x35 () x13)
(declare-fun x6 () x13)
(declare-fun x20 (x13 x13) x13)
(declare-fun x62 () x13)
(declare-fun x31 () x13)
(assert (let ((x100 (x143 x62 x62)) (x71 (x143 x6 x6)) (x61 (x143 x31 x31)) (x127 (x143 x35 x35)) (x83 (x143 x73 x73))) (or (and (not (= x6 x71)) (and (not (= x100 x6)) (and (and (not (= x83 x6)) (not (= x6 x127))) (not (= x6 x61))))) (or (or (and (not (= x31 x71)) (and (and (and (not (= x31 x83)) (not (= x127 x31))) (not (= x31 x61))) (not (= x31 x100)))) (or (and (not (= x71 x35)) (and (and (not (= x61 x35)) (and (not (= x127 x35)) (not (= x35 x83)))) (not (= x100 x35)))) (and (and (and (not (= x73 x61)) (and (not (= x73 x83)) (not (= x127 x73)))) (not (= x100 x73))) (not (= x73 x71))))) (and (not (= x62 x71)) (and (not (= x100 x62)) (and (not (= x62 x61)) (and (not (= x83 x62)) (not (= x62 x127))))))))))
(assert (and (or (= (x143 x6 (x143 x6 x6)) x6) (or (or (= x31 (x143 x6 (x143 x6 x31))) (or (= x35 (x143 x6 (x143 x6 x35))) (= x73 (x143 x6 (x143 x6 x73))))) (= x62 (x143 x6 (x143 x6 x62))))) (and (and (or (= (x143 x31 (x143 x31 x6)) x6) (or (= x62 (x143 x31 (x143 x31 x62))) (or (or (= x73 (x143 x31 (x143 x31 x73))) (= x35 (x143 x31 (x143 x31 x35)))) (= (x143 x31 (x143 x31 x31)) x31)))) (and (or (= x6 (x143 x73 (x143 x73 x6))) (or (= x62 (x143 x73 (x143 x73 x62))) (or (= x31 (x143 x73 (x143 x73 x31))) (or (= x73 (x143 x73 (x143 x73 x73))) (= x35 (x143 x73 (x143 x73 x35))))))) (or (= x6 (x143 x35 (x143 x35 x6))) (or (= (x143 x35 (x143 x35 x62)) x62) (or (= (x143 x35 (x143 x35 x31)) x31) (or (= (x143 x35 (x143 x35 x73)) x73) (= (x143 x35 (x143 x35 x35)) x35))))))) (or (or (= (x143 x62 (x143 x62 x62)) x62) (or (or (= x73 (x143 x62 (x143 x62 x73))) (= (x143 x62 (x143 x62 x35)) x35)) (= (x143 x62 (x143 x62 x31)) x31))) (= x6 (x143 x62 (x143 x62 x6)))))))
(assert (let ((x71 (= (x143 x6 x6) x6)) (x100 (= (x143 x62 x62) x62)) (x83 (= (x143 x73 x73) x73)) (x61 (= (x143 x31 x31) x31)) (x127 (= x35 (x143 x35 x35)))) (and (and (and (or (not (= x62 (x143 x6 x62))) x71) (and (and (or (not (= (x143 x6 x73) x73)) x71) (or (not (= x35 (x143 x6 x35))) x71)) (or x71 (not (= x31 (x143 x6 x31)))))) (or (not x71) x71)) (and (and (or (not (= x6 (x143 x62 x6))) x100) (and (and (and (or (not (= x35 (x143 x62 x35))) x100) (or (not (= x73 (x143 x62 x73))) x100)) (or x100 (not (= (x143 x62 x31) x31)))) (or (not x100) x100))) (and (and (and (and (or (not (= x62 (x143 x73 x62))) x83) (and (or x83 (not (= (x143 x73 x31) x31))) (and (or x83 (not x83)) (or x83 (not (= (x143 x73 x35) x35)))))) (or (not (= x6 (x143 x73 x6))) x83)) (and (and (and (or (not (= (x143 x35 x31) x31)) x127) (and (or (not (= (x143 x35 x73) x73)) x127) (or (not x127) x127))) (or x127 (not (= x62 (x143 x35 x62))))) (or (not (= (x143 x35 x6) x6)) x127))) (and (or (not (= (x143 x31 x6) x6)) x61) (and (or (not (= x62 (x143 x31 x62))) x61) (and (and (or x61 (not (= x35 (x143 x31 x35)))) (or (not (= x73 (x143 x31 x73))) x61)) (or x61 (not x61))))))))))
(assert (and (or (= x6 (x143 x6 (x143 x6 x6))) (or (or (= (x143 x31 (x143 x6 x31)) x6) (or (= (x143 x35 (x143 x6 x35)) x6) (= (x143 x73 (x143 x6 x73)) x6))) (= (x143 x62 (x143 x6 x62)) x6))) (and (and (or (= x31 (x143 x6 (x143 x31 x6))) (or (or (= (x143 x31 (x143 x31 x31)) x31) (or (= x31 (x143 x35 (x143 x31 x35))) (= (x143 x73 (x143 x31 x73)) x31))) (= (x143 x62 (x143 x31 x62)) x31))) (and (or (= x35 (x143 x6 (x143 x35 x6))) (or (or (or (= (x143 x35 (x143 x35 x35)) x35) (= x35 (x143 x73 (x143 x35 x73)))) (= (x143 x31 (x143 x35 x31)) x35)) (= (x143 x62 (x143 x35 x62)) x35))) (or (= (x143 x6 (x143 x73 x6)) x73) (or (or (or (= x73 (x143 x35 (x143 x73 x35))) (= (x143 x73 (x143 x73 x73)) x73)) (= x73 (x143 x31 (x143 x73 x31)))) (= x73 (x143 x62 (x143 x73 x62))))))) (or (or (or (or (= (x143 x73 (x143 x62 x73)) x62) (= x62 (x143 x35 (x143 x62 x35)))) (= x62 (x143 x31 (x143 x62 x31)))) (= x62 (x143 x62 (x143 x62 x62)))) (= x62 (x143 x6 (x143 x62 x6)))))))
(assert (let ((x139 (x143 x6 x73)) (x69 (x143 x35 x73)) (x37 (x143 x6 x31)) (x3 (x143 x31 x6)) (x148 (x143 x31 x31)) (x27 (x143 x73 x62)) (x54 (x143 x31 x35)) (x52 (x143 x73 x73)) (x137 (x143 x73 x31)) (x125 (x143 x35 x62)) (x122 (x143 x62 x62)) (x114 (x143 x35 x6)) (x136 (x143 x31 x73)) (x159 (x143 x35 x31)) (x12 (x143 x73 x6)) (x157 (x143 x73 x35)) (x86 (x143 x62 x73)) (x108 (x143 x6 x62)) (x94 (x143 x31 x62)) (x76 (x143 x62 x35)) (x16 (x143 x35 x35)) (x93 (x143 x6 x35)) (x104 (x143 x62 x6)) (x23 (x143 x62 x31)) (x135 (x143 x6 x6))) (let ((x118 (= x16 x31)) (x153 (= x52 x6)) (x105 (= x93 x73)) (x111 (= x31 x54)) (x66 (= x23 x6)) (x47 (= x76 x6)) (x7 (= x157 x6)) (x43 (= x6 x139)) (x36 (= x31 x12)) (x18 (= x137 x31)) (x14 (= x157 x31)) (x97 (= x35 x135)) (x96 (= x148 x35)) (x124 (= x16 x35)) (x15 (= x122 x31)) (x77 (= x62 x148)) (x63 (= x54 x73)) (x152 (= x159 x6)) (x98 (= x86 x62)) (x115 (= x6 x137)) (x149 (= x114 x6)) (x131 (= x35 x76)) (x132 (= x62 x3)) (x1 (= x76 x31)) (x87 (= x6 x135)) (x28 (= x62 x94)) (x119 (= x122 x6)) (x26 (= x73 x148)) (x49 (= x93 x31)) (x145 (= x93 x6)) (x40 (= x108 x62)) (x133 (= x31 x139)) (x120 (= x86 x73)) (x80 (= x69 x31)) (x110 (= x35 x139)) (x102 (= x94 x35)) (x154 (= x62 x114)) (x116 (= x108 x73)) (x151 (= x62 x139)) (x46 (= x37 x31)) (x129 (= x6 x69)) (x107 (= x6 x148)) (x134 (= x31 x23)) (x17 (= x31 x135)) (x24 (= x86 x6)) (x127 (= x69 x73)) (x65 (= x35 x27)) (x113 (= x104 x6)) (x21 (= x12 x6)) (x38 (= x125 x35)) (x89 (= x31 x148)) (x74 (= x159 x31)) (x68 (= x35 x136)) (x82 (= x27 x62)) (x150 (= x35 x3)) (x112 (= x12 x73)) (x123 (= x35 x23)) (x8 (= x31 x104)) (x39 (= x62 x137)) (x60 (= x31 x52)) (x79 (= x31 x114)) (x50 (= x35 x54)) (x158 (= x125 x62)) (x71 (= x73 x136)) (x32 (= x73 x137)) (x64 (= x76 x73)) (x78 (= x62 x159)) (x128 (= x108 x6)) (x117 (= x73 x139)) (x106 (= x62 x122)) (x75 (= x104 x35)) (x146 (= x6 x37)) (x72 (= x27 x6)) (x34 (= x125 x73)) (x9 (= x35 x12)) (x99 (= x125 x31)) (x130 (= x137 x35)) (x11 (= x62 x37)) (x121 (= x94 x31)) (x4 (= x37 x35)) (x61 (= x157 x73)) (x147 (= x159 x35)) (x30 (= x73 x3)) (x156 (= x114 x73)) (x144 (= x35 x114)) (x100 (= x16 x73)) (x109 (= x3 x31)) (x70 (= x73 x135)) (x83 (= x52 x73)) (x29 (= x136 x6)) (x51 (= x62 x157)) (x2 (= x16 x62)) (x59 (= x62 x12)) (x84 (= x104 x62)) (x141 (= x62 x69)) (x81 (= x73 x159)) (x10 (= x35 x69)) (x95 (= x108 x35)) (x142 (= x6 x125)) (x5 (= x136 x31)) (x85 (= x52 x35)) (x45 (= x6 x16)) (x22 (= x73 x104)) (x58 (= x6 x3)) (x67 (= x73 x94)) (x92 (= x122 x35)) (x44 (= x73 x37)) (x126 (= x62 x23)) (x41 (= x35 x157)) (x140 (= x86 x31)) (x138 (= x6 x94)) (x42 (= x62 x135)) (x53 (= x52 x62)) (x101 (= x62 x54)) (x57 (= x54 x6)) (x56 (= x27 x73)) (x19 (= x73 x122)) (x33 (= x31 x27)) (x103 (= x23 x73)) (x90 (= x35 x93)) (x25 (= x136 x62)) (x155 (= x35 x86)) (x91 (= x31 x108)) (x88 (= x76 x62)) (x55 (= x93 x62))) (and (and (or (or (and x42 x42) (or (or (or (and x55 x154) (and x151 x59)) (and x11 x132)) (and x40 x84))) (or (or (or (or (or (or (and x78 x101) (or (and x51 x141) (and x2 x2))) (and x88 x158)) (and x154 x55)) (or (or (or (or (and x53 x53) (and x141 x51)) (and x39 x25)) (and x98 x82)) (and x151 x59))) (or (or (or (and x77 x77) (or (and x39 x25) (and x78 x101))) (and x28 x126)) (and x11 x132))) (or (and x40 x84) (or (and x106 x106) (or (or (and x158 x88) (and x98 x82)) (and x126 x28)))))) (and (and (or (or (or (or (or (or (and x155 x65) (and x131 x38)) (and x123 x102)) (and x92 x92)) (and x95 x75)) (or (or (or (or (or (and x147 x50) (or (and x124 x124) (and x41 x10))) (and x131 x38)) (and x144 x90)) (or (or (or (or (and x10 x41) (and x85 x85)) (and x68 x130)) (and x65 x155)) (and x110 x9))) (or (or (and x123 x102) (or (or (and x68 x130) (and x147 x50)) (and x96 x96))) (and x150 x4)))) (or (and x97 x97) (or (and x95 x75) (or (or (and x90 x144) (and x110 x9)) (and x150 x4))))) (or (or (and x70 x70) (or (and x116 x22) (or (or (and x112 x117) (and x156 x105)) (and x30 x44)))) (or (or (and x116 x22) (or (and x19 x19) (or (and x103 x67) (or (and x64 x34) (and x56 x120))))) (or (or (or (and x112 x117) (or (or (and x32 x71) (or (and x127 x61) (and x83 x83))) (and x120 x56))) (or (and x156 x105) (or (and x34 x64) (or (or (and x127 x61) (and x100 x100)) (and x63 x81))))) (or (or (or (and x26 x26) (or (and x32 x71) (and x63 x81))) (and x67 x103)) (and x30 x44)))))) (or (or (or (and x91 x8) (or (and x15 x15) (or (or (and x1 x99) (and x33 x140)) (and x134 x121)))) (or (or (or (or (or (or (and x14 x80) (and x60 x60)) (and x18 x5)) (and x33 x140)) (and x133 x36)) (or (and x79 x49) (or (and x99 x1) (or (and x74 x111) (or (and x118 x118) (and x14 x80)))))) (or (and x109 x46) (or (or (or (and x74 x111) (and x5 x18)) (and x89 x89)) (and x121 x134))))) (or (and x17 x17) (or (or (or (and x36 x133) (and x49 x79)) (and x109 x46)) (and x91 x8)))))) (or (or (or (or (or (or (or (or (and x129 x7) (and x45 x45)) (and x57 x152)) (and x142 x47)) (and x145 x149)) (or (and x21 x43) (or (and x24 x72) (or (or (and x129 x7) (and x153 x153)) (and x115 x29))))) (or (and x146 x58) (or (and x138 x66) (or (or (and x115 x29) (and x57 x152)) (and x107 x107))))) (or (or (or (and x138 x66) (or (and x72 x24) (and x47 x142))) (and x119 x119)) (and x128 x113))) (or (and x87 x87) (or (and x128 x113) (or (or (and x43 x21) (and x149 x145)) (and x58 x146)))))))))
(assert (let ((x71 (x143 (x143 x6 x6) x6)) (x100 (x143 (x143 x62 x62) x62)) (x127 (x143 (x143 x35 x35) x35)) (x83 (x143 (x143 x73 x73) x73)) (x61 (x143 (x143 x31 x31) x31))) (or (or (and (and (and (and (not (= x62 x83)) (not (= x62 x127))) (not (= x62 x61))) (not (= x100 x62))) (not (= x62 x71))) (or (and (not (= x31 x71)) (and (and (and (not (= x127 x31)) (not (= x83 x31))) (not (= x61 x31))) (not (= x31 x100)))) (or (and (not (= x71 x35)) (and (not (= x100 x35)) (and (and (not (= x35 x127)) (not (= x35 x83))) (not (= x35 x61))))) (and (not (= x71 x73)) (and (and (not (= x73 x61)) (and (not (= x73 x127)) (not (= x73 x83)))) (not (= x100 x73))))))) (and (not (= x71 x6)) (and (not (= x100 x6)) (and (and (not (= x83 x6)) (not (= x127 x6))) (not (= x61 x6))))))))
(assert (and (or (or (= x62 (x143 (x143 x6 x62) x6)) (or (= x31 (x143 (x143 x6 x31) x6)) (or (= x73 (x143 (x143 x6 x73) x6)) (= (x143 (x143 x6 x35) x6) x35)))) (= x6 (x143 (x143 x6 x6) x6))) (and (or (or (= x62 (x143 (x143 x62 x62) x62)) (or (= x31 (x143 (x143 x62 x31) x62)) (or (= x73 (x143 (x143 x62 x73) x62)) (= (x143 (x143 x62 x35) x62) x35)))) (= x6 (x143 (x143 x62 x6) x62))) (and (or (= x6 (x143 (x143 x31 x6) x31)) (or (or (or (= x73 (x143 (x143 x31 x73) x31)) (= x35 (x143 (x143 x31 x35) x31))) (= x31 (x143 (x143 x31 x31) x31))) (= x62 (x143 (x143 x31 x62) x31)))) (and (or (or (or (or (= (x143 (x143 x73 x73) x73) x73) (= (x143 (x143 x73 x35) x73) x35)) (= x31 (x143 (x143 x73 x31) x73))) (= (x143 (x143 x73 x62) x73) x62)) (= x6 (x143 (x143 x73 x6) x73))) (or (= (x143 (x143 x35 x6) x35) x6) (or (or (= x31 (x143 (x143 x35 x31) x35)) (or (= x73 (x143 (x143 x35 x73) x35)) (= (x143 (x143 x35 x35) x35) x35))) (= (x143 (x143 x35 x62) x35) x62))))))))
(assert (let ((x32 (x143 x6 x6)) (x127 (x143 x73 x73)) (x61 (x143 x35 x35)) (x71 (x143 x62 x62)) (x100 (x143 x31 x31))) (let ((x83 (= x127 x73)) (x81 (= x35 x61)) (x103 (= x71 x62)) (x34 (= x100 x31)) (x67 (= x6 x32))) (let ((x120 (or (= x31 x32) (or (or x34 (or (= x127 x31) (= x31 x61))) (= x71 x31)))) (x64 (or x67 (or (or (or (= x6 x127) (= x61 x6)) (= x100 x6)) (= x6 x71)))) (x26 (or (or (= x35 x71) (or (or (= x35 x127) x81) (= x100 x35))) (= x32 x35))) (x56 (or (= x32 x62) (or x103 (or (or (= x62 x127) (= x61 x62)) (= x100 x62))))) (x63 (or (= x32 x73) (or (= x73 x71) (or (= x100 x73) (or x83 (= x73 x61))))))) (and (and (and (and (or (= (x143 x6 x100) x6) (or (or (or (= (x143 x73 x100) x73) (= x35 (x143 x35 x100))) (= (x143 x31 x100) x31)) (= x62 (x143 x62 x100)))) (and (or (or (= (x143 x62 x127) x62) (or (or (= x35 (x143 x35 x127)) (= (x143 x73 x127) x73)) (= (x143 x31 x127) x31))) (= (x143 x6 x127) x6)) (or (or (= x62 (x143 x62 x61)) (or (or (= (x143 x73 x61) x73) (= x35 (x143 x35 x61))) (= x31 (x143 x31 x61)))) (= x6 (x143 x6 x61))))) (or (= (x143 x6 x71) x6) (or (or (= (x143 x31 x71) x31) (or (= (x143 x73 x71) x73) (= x35 (x143 x35 x71)))) (= (x143 x62 x71) x62)))) (or (or (or (or (= x73 (x143 x73 x32)) (= x35 (x143 x35 x32))) (= x31 (x143 x31 x32))) (= (x143 x62 x32) x62)) (= x6 (x143 x6 x32)))) (and (and (or x64 (not x67)) (and (or x56 (not (= (x143 x6 x62) x6))) (and (and (or (not (= (x143 x6 x35) x6)) x26) (or x63 (not (= (x143 x6 x73) x6)))) (or (not (= x6 (x143 x6 x31))) x120)))) (and (and (and (or x64 (not (= (x143 x31 x6) x31))) (and (or (not (= (x143 x31 x62) x31)) x56) (and (and (or x63 (not (= x31 (x143 x31 x73)))) (or x26 (not (= x31 (x143 x31 x35))))) (or (not x34) x120)))) (and (and (and (or x56 (not (= x35 (x143 x35 x62)))) (and (and (or x26 (not x81)) (or (not (= x35 (x143 x35 x73))) x63)) (or (not (= (x143 x35 x31) x35)) x120))) (or x64 (not (= x35 (x143 x35 x6))))) (and (and (and (or (not (= (x143 x73 x31) x73)) x120) (and (or x63 (not x83)) (or (not (= x73 (x143 x73 x35))) x26))) (or (not (= x73 (x143 x73 x62))) x56)) (or x64 (not (= x73 (x143 x73 x6))))))) (and (and (or x56 (not x103)) (and (or (not (= x62 (x143 x62 x31))) x120) (and (or x26 (not (= x62 (x143 x62 x35)))) (or x63 (not (= (x143 x62 x73) x62)))))) (or (not (= x62 (x143 x62 x6))) x64)))))))))
(assert (let ((x116 (x143 x31 x6)) (x44 (x143 x73 x6)) (x32 (x143 x73 x35)) (x81 (x143 x31 x35)) (x63 (x143 x35 x35)) (x19 (x143 x73 x62)) (x61 (x143 x31 x73)) (x120 (x143 x6 x35)) (x67 (x143 x6 x31)) (x56 (x143 x73 x31)) (x112 (x143 x31 x62)) (x156 (x143 x6 x62)) (x105 (x143 x62 x62)) (x70 (x143 x6 x6)) (x34 (x143 x31 x31)) (x71 (x143 x6 x73)) (x127 (x143 x35 x73)) (x83 (x143 x73 x73)) (x64 (x143 x35 x31)) (x117 (x143 x35 x62)) (x30 (x143 x35 x6)) (x26 (x143 x62 x35)) (x100 (x143 x62 x73)) (x22 (x143 x62 x6)) (x103 (x143 x62 x31))) (and (and (and (and (and (not (= x103 x22)) (and (and (not (= x22 x26)) (and (and (and (and (and (not (= x26 x100)) (not (= x100 x103))) (not (= x105 x100))) (not (= x22 x100))) (not (= x103 x26))) (not (= x105 x26)))) (not (= x105 x103)))) (not (= x22 x105))) (and (and (not (= x112 x116)) (and (not (= x34 x116)) (and (not (= x112 x34)) (and (and (and (and (and (not (= x61 x112)) (and (not (= x61 x34)) (not (= x61 x81)))) (not (= x116 x61))) (not (= x34 x81))) (not (= x81 x112))) (not (= x81 x116)))))) (and (and (not (= x30 x117)) (and (and (and (and (not (= x117 x63)) (and (and (not (= x127 x30)) (and (and (not (= x63 x127)) (not (= x64 x127))) (not (= x117 x127)))) (not (= x63 x64)))) (not (= x63 x30))) (not (= x117 x64))) (not (= x30 x64)))) (and (not (= x44 x19)) (and (and (and (and (not (= x32 x19)) (and (not (= x56 x32)) (and (and (and (not (= x83 x56)) (not (= x32 x83))) (not (= x19 x83))) (not (= x44 x83))))) (not (= x44 x32))) (not (= x56 x19))) (not (= x56 x44))))))) (and (not (= x156 x70)) (and (not (= x67 x70)) (and (and (not (= x120 x70)) (and (not (= x120 x156)) (and (not (= x120 x67)) (and (and (not (= x71 x156)) (and (not (= x67 x71)) (not (= x71 x120)))) (not (= x71 x70)))))) (not (= x67 x156)))))) (and (and (and (not (= x116 x70)) (and (and (not (= x30 x70)) (and (and (and (and (not (= x44 x22)) (and (not (= x30 x44)) (not (= x44 x116)))) (not (= x44 x70))) (not (= x30 x116))) (not (= x22 x30)))) (not (= x116 x22)))) (not (= x70 x22))) (and (and (and (not (= x112 x156)) (and (not (= x112 x105)) (and (not (= x156 x117)) (and (not (= x117 x105)) (and (and (not (= x156 x19)) (and (not (= x105 x19)) (and (not (= x112 x19)) (not (= x19 x117))))) (not (= x112 x117))))))) (not (= x105 x156))) (and (and (and (not (= x100 x71)) (and (and (and (not (= x127 x71)) (and (and (not (= x61 x127)) (and (not (= x71 x83)) (and (and (not (= x127 x83)) (not (= x83 x61))) (not (= x100 x83))))) (not (= x100 x127)))) (not (= x100 x61))) (not (= x61 x71)))) (and (and (and (and (not (= x120 x63)) (and (not (= x63 x26)) (and (and (and (and (not (= x81 x32)) (not (= x63 x32))) (not (= x26 x32))) (not (= x120 x32))) (not (= x63 x81))))) (not (= x26 x81))) (not (= x120 x81))) (not (= x120 x26)))) (and (not (= x67 x103)) (and (not (= x34 x67)) (and (not (= x103 x34)) (and (and (not (= x64 x103)) (and (not (= x34 x64)) (and (and (not (= x103 x56)) (and (not (= x34 x56)) (not (= x64 x56)))) (not (= x56 x67))))) (not (= x64 x67))))))))))))
(assert (let ((x30 (x143 x35 x6)) (x85 (x143 x6 x35)) (x74 (x143 x6 x62)) (x59 (x143 x6 x6)) (x71 (x143 x73 x62)) (x32 (x143 x73 x6)) (x114 (x143 x31 x31)) (x26 (x143 x31 x73)) (x61 (x143 x73 x35)) (x156 (x143 x35 x31)) (x127 (x143 x73 x73)) (x44 (x143 x35 x62)) (x100 (x143 x73 x31)) (x120 (x143 x62 x73)) (x80 (x143 x62 x62)) (x14 (x143 x62 x6)) (x148 (x143 x62 x31)) (x96 (x143 x6 x31)) (x68 (x143 x31 x6)) (x81 (x143 x35 x73)) (x56 (x143 x6 x73)) (x52 (x143 x62 x35)) (x105 (x143 x35 x35)) (x93 (x143 x31 x62)) (x70 (x143 x31 x35))) (let ((x86 (= x62 x105)) (x51 (= x6 x93)) (x102 (= x62 x114)) (x139 (= x6 x61)) (x19 (= x61 x73)) (x43 (= x56 x6)) (x45 (= x30 x31)) (x159 (= x73 x156)) (x94 (= x26 x31)) (x90 (= x52 x73)) (x142 (= x30 x62)) (x40 (= x35 x59)) (x88 (= x73 x14)) (x29 (= x68 x31)) (x135 (= x120 x35)) (x123 (= x62 x156)) (x46 (= x62 x93)) (x24 (= x62 x96)) (x2 (= x6 x80)) (x115 (= x31 x14)) (x111 (= x35 x80)) (x147 (= x35 x114)) (x141 (= x6 x44)) (x66 (= x62 x68)) (x50 (= x156 x35)) (x18 (= x93 x35)) (x151 (= x35 x74)) (x154 (= x35 x30)) (x99 (= x44 x31)) (x22 (= x105 x35)) (x4 (= x71 x73)) (x82 (= x68 x73)) (x137 (= x31 x105)) (x79 (= x44 x62)) (x133 (= x52 x62)) (x47 (= x32 x62)) (x92 (= x70 x6)) (x144 (= x73 x148)) (x124 (= x100 x73)) (x106 (= x35 x96)) (x95 (= x93 x73)) (x132 (= x14 x35)) (x83 (= x73 x127)) (x28 (= x85 x35)) (x113 (= x14 x6)) (x55 (= x32 x35)) (x158 (= x73 x59)) (x41 (= x73 x26)) (x131 (= x62 x70)) (x21 (= x85 x6)) (x108 (= x156 x6)) (x11 (= x35 x68)) (x3 (= x31 x100)) (x110 (= x114 x6)) (x33 (= x31 x148)) (x121 (= x80 x31)) (x109 (= x62 x80)) (x67 (= x81 x73)) (x49 (= x62 x71)) (x134 (= x93 x31)) (x117 (= x105 x73)) (x101 (= x96 x73)) (x37 (= x156 x31)) (x126 (= x56 x35)) (x16 (= x70 x73)) (x69 (= x61 x31)) (x75 (= x73 x80)) (x140 (= x52 x31)) (x64 (= x127 x31)) (x58 (= x30 x6)) (x104 (= x100 x6)) (x119 (= x62 x59)) (x34 (= x62 x127)) (x1 (= x71 x31)) (x25 (= x73 x56)) (x15 (= x120 x62)) (x42 (= x31 x85)) (x78 (= x74 x73)) (x116 (= x35 x61)) (x150 (= x73 x44)) (x97 (= x52 x35)) (x36 (= x62 x148)) (x157 (= x31 x81)) (x89 (= x31 x120)) (x107 (= x85 x62)) (x17 (= x148 x6)) (x103 (= x6 x127)) (x39 (= x73 x85)) (x91 (= x6 x120)) (x129 (= x74 x31)) (x128 (= x6 x68)) (x152 (= x62 x56)) (x76 (= x35 x70)) (x7 (= x31 x32)) (x125 (= x26 x35)) (x54 (= x114 x73)) (x146 (= x32 x6)) (x130 (= x100 x35)) (x65 (= x26 x62)) (x63 (= x35 x127)) (x98 (= x30 x73)) (x38 (= x100 x62)) (x12 (= x6 x81)) (x77 (= x73 x32)) (x155 (= x114 x31)) (x8 (= x6 x52)) (x60 (= x35 x148)) (x118 (= x71 x35)) (x72 (= x74 x62)) (x87 (= x6 x59)) (x149 (= x6 x74)) (x57 (= x59 x31)) (x136 (= x62 x81)) (x84 (= x31 x56)) (x153 (= x31 x96)) (x138 (= x62 x14)) (x112 (= x35 x81)) (x23 (= x70 x31)) (x10 (= x105 x6)) (x145 (= x6 x96)) (x122 (= x26 x6)) (x9 (= x73 x120)) (x53 (= x71 x6)) (x5 (= x44 x35)) (x27 (= x61 x62))) (and (and (and (and (and (and (and (or (or (or x65 (or x136 x34)) x15) x152) (or (or (or x38 (or x27 x34)) x49) x47)) (and (and (or (or x1 (or (or x69 x64) x3)) x7) (or (or x89 (or (or x64 x157) x94)) x84)) (and (and (or x55 (or x118 (or (or x63 x116) x130))) (or (or (or (or x63 x112) x125) x135) x126)) (and (or (or x9 (or x41 (or x67 x83))) x25) (or (or x4 (or (or x19 x83) x124)) x77))))) (and (or (or (or x104 (or x103 x139)) x53) x146) (or (or x91 (or (or x12 x103) x122)) x43))) (and (and (or (or x141 (or x108 (or x10 x12))) x58) (or (or (or (or x139 x10) x92) x8) x21)) (and (and (and (or (or x140 (or (or x137 x69) x23)) x42) (or (or (or (or x137 x157) x37) x99) x45)) (and (and (or (or (or x16 (or x19 x117)) x90) x39) (or (or (or x159 (or x67 x117)) x150) x98)) (and (or x154 (or x5 (or x50 (or x22 x112)))) (or x28 (or (or x76 (or x22 x116)) x97))))) (and (or x142 (or x79 (or (or x136 x86) x123))) (or x107 (or (or (or x86 x27) x131) x133)))))) (and (and (or (or (or x110 (or x108 x104)) x17) x145) (or (or x51 (or (or x92 x122) x110)) x128)) (and (and (and (and (or (or x60 (or (or x130 x50) x147)) x106) (or (or (or x147 (or x125 x76)) x18) x11)) (and (or x101 (or (or (or x124 x159) x54) x144)) (or (or (or (or x16 x41) x54) x95) x82))) (and (or x29 (or (or (or x23 x94) x155) x134)) (or (or x33 (or (or x3 x37) x155)) x153))) (and (or (or (or (or x38 x123) x102) x36) x24) (or (or (or x102 (or x65 x131)) x46) x66))))) (and (and (or (or (or x17 (or x8 x91)) x2) x113) (or x149 (or x2 (or (or x53 x141) x51)))) (and (and (and (or x115 (or x121 (or x33 (or x140 x89)))) (or (or (or x134 (or x1 x99)) x121) x129)) (and (and (or x132 (or x111 (or (or x135 x97) x60))) (or (or x111 (or x18 (or x5 x118))) x151)) (and (or x88 (or x75 (or x144 (or x9 x90)))) (or x78 (or (or x95 (or x4 x150)) x75))))) (and (or (or (or x36 (or x133 x15)) x109) x138) (or x72 (or x109 (or x46 (or x49 x79)))))))) (and (and (or x87 (or (or (or x58 x146) x128) x113)) (or x87 (or x149 (or (or x43 x21) x145)))) (and (and (or (or (or (or x152 x107) x24) x72) x119) (or x119 (or x138 (or (or x47 x142) x66)))) (and (and (or x57 (or (or (or x45 x7) x29) x115)) (or (or (or (or x42 x84) x153) x129) x57)) (and (and (or x158 (or (or (or x77 x98) x82) x88)) (or x158 (or (or x101 (or x39 x25)) x78))) (and (or (or (or (or x154 x55) x11) x132) x40) (or (or x151 (or x106 (or x126 x28))) x40))))))))))
(assert (and (= (x143 x31 x35) x6) (and (and (= x35 (x143 x31 x31)) (= (x143 x62 x31) x73)) (= x62 (x143 x6 x31)))))
(assert (or (or (or (= (x143 x31 x31) x31) (or (= x35 (x143 x35 x35)) (= x73 (x143 x73 x73)))) (= x62 (x143 x62 x62))) (= (x143 x6 x6) x6)))
(assert (or (or (or (and (and (not (= x31 (x143 (x143 x62 x31) x62))) (and (and (not (= (x143 (x143 x35 x31) x35) x31)) (not (= (x143 (x143 x73 x31) x73) x31))) (not (= x31 (x143 (x143 x31 x31) x31))))) (not (= (x143 (x143 x6 x31) x6) x31))) (or (and (and (and (not (= (x143 (x143 x31 x73) x31) x73)) (and (not (= (x143 (x143 x35 x73) x35) x73)) (not (= (x143 (x143 x73 x73) x73) x73)))) (not (= x73 (x143 (x143 x62 x73) x62)))) (not (= x73 (x143 (x143 x6 x73) x6)))) (and (and (and (not (= x35 (x143 (x143 x31 x35) x31))) (and (not (= (x143 (x143 x73 x35) x73) x35)) (not (= (x143 (x143 x35 x35) x35) x35)))) (not (= (x143 (x143 x62 x35) x62) x35))) (not (= x35 (x143 (x143 x6 x35) x6)))))) (and (not (= x62 (x143 (x143 x6 x62) x6))) (and (and (not (= (x143 (x143 x31 x62) x31) x62)) (and (not (= (x143 (x143 x73 x62) x73) x62)) (not (= x62 (x143 (x143 x35 x62) x35))))) (not (= x62 (x143 (x143 x62 x62) x62)))))) (and (and (not (= (x143 (x143 x62 x6) x62) x6)) (and (not (= (x143 (x143 x31 x6) x31) x6)) (and (not (= x6 (x143 (x143 x73 x6) x73))) (not (= (x143 (x143 x35 x6) x35) x6))))) (not (= (x143 (x143 x6 x6) x6) x6)))))
(assert (let ((x41 (x143 x62 x62)) (x81 (x143 x62 x73)) (x156 (x143 x35 x35)) (x117 (x143 x73 x6)) (x22 (x143 x35 x6)) (x116 (x143 x35 x62)) (x16 (x143 x62 x6)) (x120 (x143 x6 x73)) (x10 (x143 x62 x31)) (x127 (x143 x73 x73)) (x114 (x143 x6 x62)) (x12 (x143 x62 x35)) (x67 (x143 x73 x31)) (x32 (x143 x31 x73)) (x93 (x143 x6 x6)) (x137 (x143 x31 x62)) (x30 (x143 x35 x31)) (x136 (x143 x31 x6)) (x54 (x143 x6 x35)) (x85 (x143 x31 x35)) (x100 (x143 x35 x73)) (x19 (x143 x73 x62)) (x76 (x143 x6 x31)) (x69 (x143 x31 x31)) (x34 (x143 x73 x35))) (let ((x90 (= x54 x31)) (x52 (= x73 x85)) (x113 (= x93 x62)) (x80 (= x62 x19)) (x133 (= x81 x62)) (x23 (= x156 x31)) (x88 (= x19 x6)) (x3 (= x35 x30)) (x95 (= x19 x73)) (x45 (= x31 x136)) (x131 (= x31 x85)) (x115 (= x136 x62)) (x98 (= x6 x67)) (x86 (= x73 x12)) (x2 (= x114 x31)) (x109 (= x41 x31)) (x57 (= x6 x136)) (x24 (= x12 x6)) (x125 (= x35 x54)) (x134 (= x69 x62)) (x64 (= x34 x73)) (x102 (= x81 x31)) (x68 (= x31 x127)) (x5 (= x156 x62)) (x121 (= x137 x31)) (x59 (= x22 x35)) (x99 (= x35 x137)) (x55 (= x6 x30)) (x148 (= x31 x67)) (x7 (= x69 x6)) (x40 (= x6 x22)) (x74 (= x31 x116)) (x56 (= x35 x127)) (x123 (= x31 x69)) (x132 (= x22 x62)) (x87 (= x6 x93)) (x26 (= x73 x120)) (x65 (= x69 x73)) (x89 (= x116 x62)) (x159 (= x54 x73)) (x138 (= x16 x62)) (x107 (= x73 x16)) (x147 (= x35 x67)) (x140 (= x32 x62)) (x141 (= x35 x114)) (x124 (= x120 x35)) (x84 (= x6 x32)) (x112 (= x35 x100)) (x155 (= x31 x32)) (x11 (= x6 x116)) (x29 (= x6 x137)) (x92 (= x31 x12)) (x58 (= x93 x31)) (x28 (= x100 x6)) (x1 (= x62 x85)) (x17 (= x114 x73)) (x129 (= x136 x35)) (x44 (= x35 x156)) (x14 (= x62 x100)) (x111 (= x30 x62)) (x42 (= x136 x73)) (x38 (= x69 x35)) (x39 (= x6 x127)) (x150 (= x127 x62)) (x36 (= x73 x41)) (x105 (= x156 x73)) (x130 (= x67 x73)) (x66 (= x41 x6)) (x18 (= x116 x35)) (x37 (= x31 x30)) (x135 (= x35 x19)) (x118 (= x73 x116)) (x157 (= x35 x85)) (x152 (= x81 x6)) (x151 (= x6 x156)) (x94 (= x73 x30)) (x51 (= x76 x62)) (x96 (= x100 x31)) (x122 (= x10 x73)) (x153 (= x6 x85)) (x119 (= x16 x6)) (x83 (= x127 x73)) (x43 (= x120 x6)) (x4 (= x76 x31)) (x110 (= x31 x120)) (x78 (= x34 x6)) (x21 (= x93 x73)) (x139 (= x35 x12)) (x145 (= x6 x54)) (x126 (= x117 x6)) (x63 (= x73 x81)) (x104 (= x35 x10)) (x47 (= x6 x10)) (x53 (= x62 x54)) (x25 (= x114 x62)) (x101 (= x117 x73)) (x106 (= x73 x22)) (x33 (= x73 x137)) (x79 (= x35 x41)) (x46 (= x10 x62)) (x8 (= x62 x120)) (x108 (= x10 x31)) (x144 (= x76 x35)) (x103 (= x34 x35)) (x71 (= x32 x73)) (x149 (= x93 x35)) (x77 (= x117 x35)) (x154 (= x22 x31)) (x142 (= x31 x16)) (x97 (= x62 x67)) (x50 (= x31 x34)) (x72 (= x16 x35)) (x128 (= x6 x114)) (x61 (= x100 x73)) (x70 (= x32 x35)) (x82 (= x117 x31)) (x146 (= x76 x6)) (x60 (= x19 x31)) (x15 (= x62 x137)) (x75 (= x62 x34)) (x91 (= x62 x41)) (x49 (= x62 x12)) (x9 (= x76 x73)) (x158 (= x117 x62)) (x27 (= x81 x35))) (or (and (and (or x87 (not x87)) (and (or x113 (not x128)) (and (or x58 (not x146)) (and (or x21 (not x43)) (or x149 (not x145)))))) (and (and (and (or (not x57) x57) (and (or (not x29) x115) (and (or x45 (not x7)) (and (or (not x153) x129) (or x42 (not x84)))))) (and (and (or x40 (not x40)) (and (or x132 (not x11)) (and (or (not x55) x154) (and (or (not x28) x106) (or (not x151) x59))))) (and (or x126 (not x126)) (and (or (not x88) x158) (and (and (or x77 (not x78)) (or (not x39) x101)) (or (not x98) x82)))))) (and (or x119 (not x119)) (and (or x138 (not x66)) (and (and (or (not x24) x72) (or (not x152) x107)) (or (not x47) x142)))))) (or (and (and (and (and (and (or (not x158) x88) (and (or (not x80) x80) (and (or x60 (not x97)) (and (or (not x150) x95) (or x135 (not x75)))))) (and (or x11 (not x132)) (and (or (not x89) x89) (and (or (not x111) x74) (and (or x18 (not x5)) (or x118 (not x14))))))) (and (and (or (not x15) x15) (and (and (or x99 (not x1)) (or (not x140) x33)) (or (not x134) x121))) (or (not x115) x29))) (and (and (or x91 (not x91)) (and (or x109 (not x46)) (and (or (not x49) x79) (or x36 (not x133))))) (or (not x138) x66))) (and (or (not x113) x128) (and (or x25 (not x25)) (and (or x2 (not x51)) (and (or (not x8) x17) (or x141 (not x53))))))) (or (and (and (or (not x58) x146) (and (and (and (or x9 (not x110)) (or x144 (not x90))) (or (not x4) x4)) (or x51 (not x2)))) (and (and (and (and (and (or x97 (not x60)) (and (or x148 (not x148)) (and (or (not x68) x130) (or x147 (not x50))))) (or (not x82) x98)) (and (and (and (and (or x3 (not x23)) (or x94 (not x96))) (or (not x37) x37)) (or x111 (not x74))) (or (not x154) x55))) (and (and (or x134 (not x121)) (and (or x123 (not x123)) (and (or (not x131) x38) (or x65 (not x155))))) (or (not x45) x7))) (and (or (not x142) x47) (and (and (or x108 (not x108)) (and (or (not x102) x122) (or x104 (not x92)))) (or (not x109) x46))))) (or (and (and (or x43 (not x21)) (and (and (and (or (not x159) x124) (or (not x26) x26)) (or x110 (not x9))) (or x8 (not x17)))) (and (and (or x152 (not x107)) (and (and (and (or x63 (not x63)) (or (not x86) x27)) (or (not x122) x102)) (or x133 (not x36)))) (and (and (and (and (or (not x118) x14) (and (or (not x94) x96) (and (or (not x105) x112) (or x61 (not x61))))) (or x28 (not x106))) (and (or (not x101) x39) (and (and (or (not x130) x68) (and (or x83 (not x83)) (or x56 (not x64)))) (or x150 (not x95))))) (and (and (or x140 (not x33)) (and (and (or x71 (not x71)) (or x70 (not x52))) (or x155 (not x65)))) (or (not x42) x84))))) (and (and (and (and (and (and (or x86 (not x27)) (or (not x139) x139)) (or x92 (not x104))) (or x49 (not x79))) (or (not x72) x24)) (and (and (and (and (or (not x18) x5) (and (or x23 (not x3)) (and (or x105 (not x112)) (or x44 (not x44))))) (or x151 (not x59))) (and (and (or (not x135) x75) (and (and (or x64 (not x56)) (or (not x103) x103)) (or (not x147) x50))) (or x78 (not x77)))) (and (or x153 (not x129)) (and (or (not x99) x1) (and (and (or (not x70) x52) (or x157 (not x157))) (or (not x38) x131)))))) (and (or x145 (not x149)) (and (and (and (or (not x124) x159) (or x125 (not x125))) (or x90 (not x144))) (or x53 (not x141))))))))))))
(assert (and (not (= x6 x62)) (and (not (= x6 x31)) (and (and (and (and (not (= x35 x31)) (and (not (= x73 x6)) (and (and (not (= x35 x73)) (not (= x73 x31))) (not (= x62 x73))))) (not (= x35 x62))) (not (= x6 x35))) (not (= x31 x62))))))
(assert (not (and (and (= (x143 x6 x62) x35) (and (and (and (and (and (and (and (= x62 (x143 x62 x35)) (and (and (and (and (and (= x6 (x143 x31 x35)) (and (and (= (x143 x35 x6) x6) (and (= (x143 x35 x62) x62) (and (= (x143 x35 x31) x31) (and (= (x143 x35 x35) x35) (and (= (x143 x35 x73) x73) (and (and (and (and (= (x143 x73 x35) x73) (= (x143 x73 x73) x35)) (= (x143 x73 x31) x6)) (= (x143 x73 x62) x31)) (= x62 (x143 x73 x6)))))))) (= (x143 x31 x73) x62))) (= x35 (x143 x31 x31))) (= x73 (x143 x31 x62))) (= x31 (x143 x31 x6))) (= (x143 x62 x73) x31))) (= x73 (x143 x62 x31))) (= x6 (x143 x62 x62))) (= (x143 x62 x6) x35)) (= (x143 x6 x73) x6)) (= x31 (x143 x6 x35))) (= (x143 x6 x31) x62))) (= x73 (x143 x6 x6)))))
(assert (let ((x64 (x143 x31 x35)) (x112 (x143 x62 x31)) (x81 (x143 x35 x31)) (x117 (x143 x62 x35)) (x156 (x143 x62 x6)) (x71 (x143 x73 x6)) (x120 (x143 x35 x6)) (x34 (x143 x31 x31)) (x44 (x143 x6 x73)) (x56 (x143 x31 x73)) (x100 (x143 x73 x62)) (x103 (x143 x31 x62)) (x105 (x143 x62 x62)) (x30 (x143 x6 x35)) (x19 (x143 x62 x73)) (x22 (x143 x6 x62)) (x67 (x143 x31 x6)) (x83 (x143 x73 x73)) (x32 (x143 x35 x73)) (x26 (x143 x35 x62)) (x116 (x143 x6 x31)) (x61 (x143 x73 x31)) (x63 (x143 x35 x35)) (x127 (x143 x73 x35)) (x70 (x143 x6 x6))) (and (and (and (and (and (and (and (and (or (or (or (= x83 x31) (or (= x83 x35) (= x83 x73))) (= x62 x83)) (= x83 x6)) (or (= x127 x6) (or (= x62 x127) (or (= x127 x31) (or (= x127 x73) (= x35 x127)))))) (or (or (or (= x61 x31) (or (= x61 x35) (= x73 x61))) (= x62 x61)) (= x6 x61))) (or (or (or (= x31 x100) (or (= x100 x73) (= x100 x35))) (= x100 x62)) (= x100 x6))) (or (= x71 x6) (or (or (= x31 x71) (or (= x35 x71) (= x73 x71))) (= x71 x62)))) (and (or (= x120 x6) (or (= x62 x120) (or (or (= x120 x35) (= x120 x73)) (= x31 x120)))) (and (and (or (or (= x62 x81) (or (= x31 x81) (or (= x81 x35) (= x73 x81)))) (= x6 x81)) (and (or (= x6 x63) (or (= x62 x63) (or (= x31 x63) (or (= x63 x73) (= x63 x35))))) (or (= x32 x6) (or (= x32 x62) (or (= x32 x31) (or (= x32 x73) (= x35 x32))))))) (or (or (= x62 x26) (or (= x31 x26) (or (= x35 x26) (= x73 x26)))) (= x26 x6))))) (and (or (or (or (= x31 x67) (or (= x73 x67) (= x67 x35))) (= x67 x62)) (= x6 x67)) (and (or (= x103 x6) (or (= x62 x103) (or (= x103 x31) (or (= x35 x103) (= x73 x103))))) (and (or (or (= x62 x34) (or (or (= x34 x35) (= x73 x34)) (= x34 x31))) (= x34 x6)) (and (or (or (or (or (= x64 x35) (= x64 x73)) (= x31 x64)) (= x64 x62)) (= x6 x64)) (or (= x6 x56) (or (or (= x56 x31) (or (= x35 x56) (= x56 x73))) (= x62 x56)))))))) (and (and (and (and (or (or (= x62 x117) (or (= x31 x117) (or (= x117 x73) (= x35 x117)))) (= x117 x6)) (or (or (= x62 x19) (or (= x19 x31) (or (= x19 x73) (= x19 x35)))) (= x6 x19))) (or (= x112 x6) (or (= x112 x62) (or (or (= x112 x35) (= x73 x112)) (= x31 x112))))) (or (= x105 x6) (or (or (or (= x105 x35) (= x105 x73)) (= x31 x105)) (= x105 x62)))) (or (= x156 x6) (or (or (= x31 x156) (or (= x156 x73) (= x35 x156))) (= x62 x156))))) (and (and (and (or (or (or (= x31 x116) (or (= x35 x116) (= x73 x116))) (= x62 x116)) (= x6 x116)) (and (or (or (= x62 x44) (or (= x44 x31) (or (= x44 x73) (= x44 x35)))) (= x6 x44)) (or (or (= x62 x30) (or (or (= x30 x73) (= x35 x30)) (= x31 x30))) (= x6 x30)))) (or (= x22 x6) (or (= x62 x22) (or (= x22 x31) (or (= x35 x22) (= x73 x22)))))) (or (= x70 x6) (or (or (or (= x35 x70) (= x70 x73)) (= x70 x31)) (= x62 x70)))))))
(assert (let ((x105 (x143 x6 x35)) (x117 (x143 x6 x73)) (x112 (x143 x73 x6)) (x34 (x143 x35 x62)) (x103 (x143 x62 x31)) (x22 (x143 x62 x6)) (x70 (= (x143 x6 x6) x6)) (x156 (x143 x35 x6)) (x32 (x143 x73 x31)) (x120 (x143 x62 x73)) (x67 (x143 x31 x62)) (x44 (x143 x6 x31)) (x19 (= (x143 x62 x62) x62)) (x71 (x143 x31 x73)) (x127 (x143 x35 x73)) (x26 (= x31 (x143 x31 x31))) (x116 (x143 x6 x62)) (x63 (x143 x31 x35)) (x30 (x143 x31 x6)) (x100 (= x35 (x143 x35 x35))) (x81 (x143 x35 x31)) (x83 (= (x143 x73 x73) x73)) (x64 (x143 x62 x35)) (x61 (x143 x73 x35)) (x56 (x143 x73 x62))) (or (or (or (or (and (= x44 x6) (not (= x6 x30))) (or (and (not (= x156 x6)) (= x6 x105)) (and (not (= x112 x6)) (= x6 x117)))) (and (not (= x6 x22)) (= x6 x116))) (and x70 (not x70))) (or (or (or (and (= x30 x31) (not (= x44 x31))) (or (or (and (not x26) x26) (or (and (not (= x31 x81)) (= x63 x31)) (and (= x31 x71) (not (= x31 x32))))) (and (not (= x31 x103)) (= x31 x67)))) (or (or (and (= x73 x112) (not (= x117 x73))) (or (or (or (and (not x83) x83) (and (= x73 x61) (not (= x73 x127)))) (and (= x32 x73) (not (= x73 x71)))) (and (not (= x120 x73)) (= x56 x73)))) (or (and (not (= x105 x35)) (= x156 x35)) (or (and (not (= x64 x35)) (= x34 x35)) (or (and (= x81 x35) (not (= x63 x35))) (or (and x100 (not x100)) (and (= x127 x35) (not (= x35 x61))))))))) (or (or (and x19 (not x19)) (or (and (= x103 x62) (not (= x62 x67))) (or (and (not (= x34 x62)) (= x62 x64)) (and (not (= x56 x62)) (= x120 x62))))) (and (not (= x116 x62)) (= x22 x62)))))))
(assert (let ((x26 (x143 x31 x31)) (x64 (x143 x62 x35)) (x19 (x143 x62 x62)) (x61 (x143 x73 x35)) (x34 (x143 x35 x62)) (x67 (x143 x31 x62)) (x32 (x143 x73 x31)) (x117 (x143 x6 x73)) (x22 (x143 x62 x6)) (x127 (x143 x35 x73)) (x120 (x143 x62 x73)) (x100 (x143 x35 x35)) (x70 (x143 x6 x6)) (x83 (x143 x73 x73)) (x56 (x143 x73 x62)) (x105 (x143 x6 x35)) (x156 (x143 x35 x6)) (x44 (x143 x6 x31)) (x112 (x143 x73 x6)) (x103 (x143 x62 x31)) (x71 (x143 x31 x73)) (x116 (x143 x6 x62)) (x30 (x143 x31 x6)) (x63 (x143 x31 x35)) (x81 (x143 x35 x31))) (or (or (or (or (and (and (and (= x81 x63) (and (= x100 x100) (= x61 x127))) (= x34 x64)) (= x105 x156)) (and (and (and (and (= x127 x61) (= x83 x83)) (= x71 x32)) (= x56 x120)) (= x112 x117))) (and (and (= x103 x67) (and (= x26 x26) (and (= x71 x32) (= x81 x63)))) (= x30 x44))) (and (and (and (and (= x56 x120) (= x64 x34)) (= x67 x103)) (= x19 x19)) (= x116 x22))) (and (and (= x22 x116) (and (= x44 x30) (and (= x117 x112) (= x156 x105)))) (= x70 x70)))))
(assert (or (or (or (not (= x31 (x143 x31 (x143 x31 x31)))) (or (not (= x35 (x143 x35 (x143 x35 x35)))) (not (= (x143 x73 (x143 x73 x73)) x73)))) (not (= x62 (x143 x62 (x143 x62 x62))))) (not (= x6 (x143 x6 (x143 x6 x6))))))
(check-sat)
(exit)
